100 100 100
50
28 97 13
81 47 31
68 11 61
16 54 4
94 68 24
58 10 33
11 45 96
94 4 50
77 18 13
89 65 2
81 31 18
1 17 1
74 45 47
64 66 64
88 22 85
95 95 39
77 24 33
33 7 95
68 82 82
45 56 47
26 60 80
15 48 59
82 22 13
54 38 56
53 28 53
10 53 45
11 2 28
3 26 20
87 12 6
78 12 89
39 38 58
55 94 91
40 71 21
8 83 26
37 57 70
74 61 100
13 31 48
73 74 1
47 51 89
11 79 74
77 63 75
1 64 64
3 72 52
33 77 56
97 100 75
48 29 7
22 80 98
4 50 82
47 36 40
64 4 77
